benchmarks/bfuzz0/4920279034463136242991331612967412285.smt2
(set-logic QF_FP)
(declare-const x0 (_ FloatingPoint 8 24))
(declare-const x1 (_ FloatingPoint 8 24))
(declare-const x2 (_ FloatingPoint 8 24))
(declare-const x3 (_ FloatingPoint 8 24))
(declare-const x4 (_ FloatingPoint 8 24))
(declare-const x5 (_ FloatingPoint 8 24))
(declare-const x6 (_ FloatingPoint 8 24))
(declare-const x7 (_ FloatingPoint 8 24))
(declare-const x8 (_ FloatingPoint 8 24))
(declare-const x9 (_ FloatingPoint 8 24))
(declare-const x10 (_ FloatingPoint 8 24))
(declare-const x11 (_ FloatingPoint 8 24))
(declare-const x12 (_ FloatingPoint 8 24))
(declare-const x13 (_ FloatingPoint 8 24))
(declare-const x14 (_ FloatingPoint 8 24))
(declare-const x15 (_ FloatingPoint 8 24))
(declare-const x16 (_ FloatingPoint 8 24))
(declare-const x17 (_ FloatingPoint 8 24))
(declare-const x18 (_ FloatingPoint 8 24))
(declare-const x19 (_ FloatingPoint 8 24))
(declare-const x20 (_ FloatingPoint 8 24))
(declare-const x21 (_ FloatingPoint 8 24))
(assert (fp.leq (fp.mul RNE x4 x13) (fp.div RNE x0 x2)))
(assert (fp.gt (fp.sub RNE x4 x11) (fp.mul RNE x18 x8)))
(assert (fp.geq (fp.mul RNE x13 x8) (fp.neg x4)))
(assert (fp.lt (fp.neg x10) (fp.div RNE x17 x16)))
(assert (fp.geq (fp.add RNE x18 x3) (fp.div RNE x19 x6)))
(assert (fp.geq (fp.mul RNE x9 x15) (fp.neg x14)))
(check-sat)
