db/data/4920279034463136242991331612967412285.z3.out
sat
-------------------
14.877045668
